LAMMPS (9 Oct 2012)
# 3d protein simulation

units real

timestep 5

dimension	3

boundary s s s
#boundary p p p

neighbor	5 bin
neigh_modify	delay 5

atom_modify sort 0 0.0

special_bonds fene

atom_style	peptide

bond_style harmonic

pair_style vexcluded 2 3.5 3.5

read_data data.1r69
  3 = max bonds/atom
  orthogonal box = (-1000 -1000 -1000) to (1000 1000 1000)
  1 by 1 by 1 MPI processor grid
  189 atoms
  250 bonds
  5 = max # of 1-2 neighbors
  5 = max # of special neighbors

pair_coeff * * 0.0
pair_coeff 1 1 20.0 3.5 4.5
pair_coeff 1 4 20.0 3.5 4.5
pair_coeff 4 4 20.0 3.5 4.5
pair_coeff 3 3 20.0 3.5 3.5


velocity	all create 300.0 2349852

group		alpha_carbons id 1 4 7 10 13 16 19 22 25 28 31 34 37 40 43 46 49 52 55 58 61 64 67 70 73 76 79 82 85 88 91 94 97 100 103 106 109 112 115 118 121 124 127 130 133 136 139 142 145 148 151 154 157 160 163 166 169 172 175 178 181 184 187
63 atoms in group alpha_carbons

group		beta_atoms id 3 6 9 12 15 18 21 24 27 30 33 36 39 42 45 48 51 54 57 60 63 66 69 72 75 78 81 84 87 90 93 96 99 102 105 108 111 114 117 120 123 126 129 132 135 138 141 144 147 150 153 156 159 162 165 168 171 174 177 180 183 186 189
63 atoms in group beta_atoms

group		oxygens id 2 5 8 11 14 17 20 23 26 29 32 35 38 41 44 47 50 53 56 59 62 65 68 71 74 77 80 83 86 89 92 95 98 101 104 107 110 113 116 119 122 125 128 131 134 137 140 143 146 149 152 155 158 161 164 167 170 173 176 179 182 185 188
63 atoms in group oxygens


#Nose-Hoover thermostat
#fix		  1 all nvt temp 300.0 300.0 100.0  

#langevin thermostat
fix 1  all nve
fix 11 all langevin 350.0 550.0 1000 3456  #change 3456 to other RANDOM numbers to initiate a different simulation

fix		  2 alpha_carbons backbone beta_atoms oxygens fix_backbone_coeff.data extended.seq
Chain flag on
Chi flag on
Rama flag on
Rama_P flag on
SSWeight flag on
ABC flag on
Dssp_Hdrgn flag on
P_AP flag on
Water flag on
Burial flag on
Helix flag on
Fragment_Memory_Table flag on

Reading fragments...
Computing FM table...

thermo		2000
dump		1 all atom 2000 1_dump

dump_modify	1 sort id

variable E_bond  equal emol
variable E_chain equal f_2[1]
variable E_excl  equal epair
variable E_chi   equal f_2[3]
variable E_rama  equal f_2[4]
variable E_dssp  equal f_2[6]
variable E_pap   equal f_2[7]
variable E_water equal f_2[8]
variable E_burial equal f_2[9]
variable E_helix equal f_2[10]
variable E_fmem  equal f_2[12]
variable E_P     equal v_E_chain+v_E_chi+v_E_rama+v_E_water+v_E_helix+v_E_fmem+v_E_excl+v_E_dssp+v_E_pap+v_E_bond
variable E_K     equal ke
variable E_total equal v_E_P+v_E_K
variable Step equal step
fix energy all print 2000 "${Step} ${E_chain} ${E_bond} ${E_chi} ${E_rama} ${E_excl} ${E_dssp} ${E_pap} ${E_water} ${E_helix} ${E_fmem} ${E_P}" file energy screen no

reset_timestep	0
restart 2000000 unfold
run		2000000
Memory usage per processor = 0.875687 Mbytes
Step Temp E_pair E_mol TotEng Press Volume 
       0          300    59.531988    121.46429   -299.06819   -392.02962    15563.797 
    2000    347.05357    6.4860016    85.717748   -215.27928    1056.6968    15063.403 
    4000    376.98082    8.4743639     67.46198   -247.50458   -561.19651    15800.779 
    6000    328.11243    7.8468771    79.863302    -231.7747    332.58738     16787.38 
    8000    318.75083    2.9495422    87.811162   -253.53624    694.27143      18922.4 
   10000    335.43617    7.1793086    77.351551    -234.1526   -2161.4951    15423.603 
   12000    368.90911    5.4791755    61.985773   -233.87983   -625.74152    15722.727 
   14000    333.70464    2.2787327    71.863782   -235.93512   -175.08776    17727.368 
   16000    345.07954    8.7854398    74.452877   -218.87366    424.34877    18118.091 
   18000    364.73886     6.730897    71.356612   -209.23327   -325.68019    15809.791 
   20000    378.07637     12.28066    77.465021   -213.52201    731.78918    16291.972 
   22000    349.90661    7.7825226    78.511305   -196.51003   -281.57081    16464.079 
   24000    376.05611    10.759793    69.462446    -215.0773     308.3121    14632.899 
   26000    372.88165     4.906937    79.263562   -194.61569   -320.64723    16150.649 
   28000    348.37623    9.4741969    63.165701   -253.67736   -1345.1615    15819.841 
   30000    379.17842    4.4756456    66.868091   -217.19179     2416.159    15358.684 
   32000    353.53953    3.7406215    75.235493   -184.46533   -1124.9492    15456.028 
   34000     326.8137    8.9173697    80.342362   -233.48229    190.27488    14579.699 
   36000    357.91728    4.9194289    81.543388   -222.15605   -516.00604    18134.555 
   38000    343.86013    6.9806758    72.332187   -224.96169   -125.96681    20146.512 
   40000    342.21263    6.4242237    63.591615   -248.35614    479.07369    16223.613 
   42000    365.67658    9.4527154    87.483388   -188.01471    -66.89086    15614.448 
   44000    318.50842    8.2720636    64.630086   -261.69179    654.10534    16279.203 
   46000    407.30558    7.7590814    78.766344   -192.01261   -1628.5462    14214.734 
   48000    372.19164    5.5021951    83.056676   -190.04971   -709.45042    15991.291 
   50000      330.689    11.711128    69.336648   -270.63273    1613.7954    15091.296 
   52000    374.31926    6.7048569    71.651443   -208.92771   -1087.5058    14326.622 
   54000    332.70239    6.5002478     68.76637   -260.20612    969.53722    16287.475 
   56000    330.12493    4.8223268    80.029984   -214.06216    963.97823    14408.692 
   58000     339.8247    5.4284008    70.737409   -228.40036   -2192.8848    13825.217 
   60000    345.96934    6.3794028    78.742936   -246.38937    2589.2255    15768.033 
   62000    374.73992    10.484527    82.744674   -188.28739   -1034.8898    14872.681 
   64000    359.88656    7.0187914    73.238587   -240.66422     1596.121    16645.532 
   66000    352.69095    7.4008232    70.313951   -208.65363    858.58838    16567.869 
   68000    355.74108    5.5034885    72.596773   -213.17646     1030.073    15845.918 
   70000    380.33076    4.4749394    87.137666    -201.0135     455.4513    15988.446 
   72000    376.81585    6.7185709     72.38065    -211.2118    818.95801    16952.757 
   74000    364.43714    6.1082394    71.567452   -206.43293    1428.9972    16310.606 
   76000    333.94698    4.0207677    69.428286   -237.70118    1184.0235     17239.56 
   78000    368.29343    5.8317795     77.28403   -204.79266    1204.9136    15623.423 
   80000    403.32263     6.057394    79.093072   -200.13563    1761.3687    14077.855 
   82000    402.83558    7.0304374    77.856347   -176.79692   -1610.4526    17201.557 
   84000    359.01932    6.9174758    70.916838    -226.9032     3288.393    16320.087 
   86000    336.59475    7.6990911    69.538474   -233.50142    280.43718    15214.051 
   88000     365.4047    3.5235456     81.89722   -207.75193   -251.00454    16386.768 
   90000    374.33681    6.7102146    82.611746   -202.49896   -2147.5242    15513.743 
   92000    342.19751    4.8663961    71.586766   -223.98299    -283.2081    15281.127 
   94000    333.97394    3.8842348    82.031944   -225.28986    451.31787    15490.752 
   96000    333.37281    7.0657996    73.931117   -239.55092    1800.9096    13991.476 
   98000    371.02577    7.5541992    77.780388   -186.46235    1030.8132    16820.527 
  100000    387.11649    4.3300547     82.12217   -184.96695   -1429.0881    15200.265 
  102000    317.29413    5.2045396    95.210239    -227.9653    276.76008    16866.657 
  104000    396.52094    8.2882479    88.470921   -180.08388    1241.6964    17774.788 
  106000    325.13023    7.7414964    87.497583   -210.96641   -241.27837    16205.838 
  108000    403.16249    8.3338156    82.244991   -196.17421    417.19302    15238.021 
  110000    378.10629    8.2699102    81.752915   -199.45297    475.06708    14029.855 
  112000    378.30353    5.3024501    72.722163   -194.92911   -605.71475    14097.972 
  114000    382.00243    3.0181876    76.565787   -192.92995   -1332.4817    14029.579 
  116000    343.17867     10.98893    76.467924   -244.96963   -1461.3079    14684.415 
  118000    365.52507     10.56853    79.654406     -200.438    -2106.675    13950.693 
  120000    365.33183    5.4792944    87.578835   -210.75662    330.36057    13943.738 
  122000    350.06162    7.6042454    83.662953   -217.27081   -1015.9962    14209.044 
  124000    369.73664     5.264989    74.140054   -223.63477    281.11006    15175.801 
  126000    356.69248    5.7236099    79.161974   -204.58495   -277.66885    15066.169 
  128000    368.33605    4.6721703    75.685805   -212.57982    2578.6818    16951.917 
  130000    335.70501    4.7711286    79.939954   -232.70869     73.12398     18254.42 
  132000    371.72404    6.7192723    83.828707   -210.04174   -863.94127    16379.364 
  134000    373.75873    4.5185588    70.556334   -225.33266    1496.8174    14683.785 
  136000    375.01843    12.974308     66.64573   -199.56479    636.22921     14850.73 
  138000    375.31867    6.3679533    81.531814   -183.78817     1796.729    15266.259 
  140000    397.67986    11.536439    80.190494   -157.36627    919.48448    15912.225 
  142000     388.8743    6.0933292    80.356944   -192.69479   -1676.8907    15816.194 
  144000    381.73976    6.5771907    79.668332   -182.94749   -2635.7596    17170.566 
  146000    373.57261    6.3964384    78.774682   -165.95806    669.51839    15162.507 
  148000    379.12778    3.8777442    98.583136   -189.17627    153.82201     15153.78 
  150000    331.12354    10.014601    93.844215   -217.35997   -241.72688    15622.574 
  152000    362.66922    5.2046083    90.790554   -190.95787   -15.289233    16090.528 
  154000    356.32148    8.3146951    80.013541   -196.36744   -44.890876    17375.082 
  156000    399.12906    3.0310919    90.258195   -152.07376   -2069.5848    15830.474 
  158000    389.42499    7.0926056    64.449073   -215.60935   -677.38587    15941.324 
  160000    357.07599    8.7407913    72.024369   -224.11394   -1738.3435    17435.786 
  162000    374.20491     5.781099    67.461086   -230.53548   -489.39696    16696.816 
  164000    364.07418    9.3721466    78.325498   -205.88591    490.86536    16634.825 
  166000    347.32142    8.1251764    80.757819   -218.11032   -1027.9638    14793.918 
  168000    375.13922    6.2519514    81.588259   -174.47639    2756.5587    14737.824 
  170000    377.53636    6.0563828    74.826348    -191.5239    1170.5727    15197.329 
  172000    371.52682    4.8872547     79.21876    -216.3146    670.35679    15780.382 
  174000    358.87804    3.9812969    77.285857   -225.16973   -1056.4412    14759.249 
  176000    320.78791    8.5711842    77.437957   -242.77827   -815.02944    15261.023 
  178000    380.58587    5.3708174    80.428464   -189.53018   -1955.4666    16132.229 
  180000    342.86895    7.0191765      79.5313   -220.96476    1275.9511    15253.018 
  182000    377.72619    7.7052065    65.860567   -194.57672   -1232.8684    13694.431 
  184000    330.11277    6.3186021    81.694352   -219.56415   -667.61948    14603.946 
  186000    404.07942    5.1927016    68.004192    -207.2555   -971.74248    15937.016 
  188000    382.83041    8.3365041    73.327249   -184.26121    -572.9729    14358.697 
  190000    386.64925    6.8974088    74.514651   -189.59066    -841.6324    18218.769 
  192000    374.74609    6.0403987    77.557896    -198.6086    1657.3906    16845.837 
  194000    385.17476    8.2159258    81.209272   -176.76875    436.46676    16176.858 
  196000     360.5187     6.559941    73.906077   -209.08026   -174.75794    16402.426 
  198000    369.22553    8.7015324    79.505124   -213.75178   -318.35658    17572.887 
  200000    381.42243    8.2382023    78.130099    -191.1351    235.60421    15143.879 
  202000    379.38209    5.3505626    67.518223   -187.95171    -375.7723    17580.666 
  204000    404.90606    4.4994695    79.964689    -183.9957    1655.1099    15466.789 
  206000     318.3799    4.9797295     76.37467   -249.24982    1363.0981    17620.859 
  208000     405.2087    6.0790542    76.900631   -128.95667    1160.5597    14939.028 
  210000    341.78555     5.981625    70.276462   -228.52825    666.91161    15904.082 
  212000    346.00051    3.6245574    74.248074   -189.30789   -843.06067     16807.15 
  214000    385.47025     6.802625    82.733655   -160.53148    478.38775    15817.555 
  216000    383.45377    5.9874866    103.70952   -141.92654     475.0158    16055.011 
  218000    378.80999     4.326846    93.225305   -162.43821    238.67194    16047.864 
  220000    398.56194    5.1184511    90.949676    -164.5359   -729.48217    15492.072 
  222000    383.43616    6.4586857    78.992203   -194.90994   -316.26886    14757.867 
  224000    347.46227    5.7324287    104.36412   -182.91364   -2398.2483    15143.489 
  226000    401.19001    6.1817165    69.322512   -202.16767   -1284.7552    16289.489 
  228000     365.7207     3.944271     81.12097   -200.50005    250.42502    14404.875 
  230000    388.54808     5.959617    92.142022   -161.09654   -1683.0237    15783.788 
  232000     408.6783    4.6006233    70.325204   -199.57348   -351.07797    15610.258 
  234000    344.18298    8.1088323    89.735482   -194.77758    759.08948    14279.418 
  236000    341.29872    8.1504827    75.733006   -223.31372    422.12685    14604.373 
  238000    323.72138     4.043674    74.472897   -217.71492    1904.6727    15178.047 
  240000    367.97934    11.061542    84.173201   -204.80743   -1376.2702    15655.409 
  242000    397.57275    10.418547    86.041528   -163.16546   -965.32806    17044.043 
  244000    386.51005     7.241581    84.582936   -163.04338    1447.2174    18027.127 
  246000    354.07036    5.8372506    77.696534   -211.40654   -1225.1333    15721.761 
  248000    364.26055    20.753208    80.940595   -174.31671    324.60644    17235.148 
  250000    381.24209    4.5459434    91.625873   -170.99524    163.96829    16912.414 
  252000    371.75446     4.945394    85.357651   -167.11055    777.48364     16050.74 
  254000    339.09976      7.21552    84.309111   -210.74348   -443.43251    15985.723 
  256000    337.63607     4.946028     71.84973   -225.37292   -1002.0955    18727.614 
  258000     363.1746    4.7282356    80.365421   -217.74876    -990.6302     18769.17 
  260000    354.95725    8.9476521    81.194147   -201.29879    144.36737    18106.107 
  262000    371.98617    4.8097195    72.919896    -206.8333    388.43495    17234.388 
  264000    360.01268    5.6852605    73.913847    -208.8448   -430.01914    16059.524 
  266000    402.50281    9.3457393    87.096496   -176.85171    1106.1805    16009.411 
  268000     417.0357    7.0292128    80.654904   -182.88402   -1735.7256     16915.54 
  270000     384.7987    5.5041528    79.630563   -196.99529   -147.39625    17988.123 
  272000    373.99441    9.5238832    95.700541   -139.33436    653.23309    18840.943 
  274000    396.30279    9.5866633    81.991393   -169.92041   -20.650789    17923.332 
  276000    421.52259    4.0211775    82.975637   -159.80177   -1193.5843    16717.204 
  278000    368.21079    5.3726034    77.605198   -185.95622   -519.82276    17572.767 
  280000    411.80437    4.1364526    81.974211   -167.15707   -1293.9627    14878.609 
  282000    380.02693    6.6679283    76.600352   -151.82921    1510.1181    15280.295 
  284000    391.02535    7.7979272    84.446907   -182.07036    -321.8704    13553.362 
  286000    380.79393      6.68455    72.132499   -190.59079   -707.41442    14969.582 
  288000    389.22245    5.6855593    103.20168   -148.78884    927.08436    15817.878 
  290000    384.11301    8.1296639     81.17376   -167.28834   -686.12815    19472.926 
  292000    364.63484    5.7701887    82.423178    -216.8468   -910.04817    16897.436 
  294000    417.93478    2.1901633    74.240999   -189.15011    1504.6466    16857.866 
  296000    375.44206    9.6721734    81.554514   -177.80576   -449.25558    16075.011 
  298000    380.81268    3.3342747    76.735657   -157.80682    374.07694    18100.046 
  300000    341.69514    5.2767286    87.351029   -194.97693   -18.013202    17205.969 
  302000    373.24245    6.8612618    85.095359   -203.61991    88.103043    17966.567 
  304000    400.62925    5.8808541    96.152222   -133.22538    803.94081    15739.727 
  306000    395.06675    2.4904326    69.586465    -191.6654    551.44147     16067.45 
  308000    359.38264    6.4937831    76.930207   -204.57932   -326.01079    16740.943 
  310000    362.78208    6.4473701     72.97943    -187.6493      1413.58    17706.739 
  312000    414.31277     2.641212    80.116644   -168.86435   -1905.3266    16913.915 
  314000    375.74441    5.9835208    76.770007   -211.91449    426.71545    16564.112 
  316000    393.84924    10.491617    79.231075   -179.22877     -312.885    19349.969 
  318000    378.16441    7.5723653    82.162441   -202.10609    1590.5444    16409.991 
  320000    411.09367    9.6913051    75.838473    -146.1211    383.45129    15324.553 
  322000    371.44212    4.2562964    97.802059   -160.45296   -954.31328     16945.57 
  324000    425.57378    7.8789685    70.083154   -147.24776    929.93175    18284.818 
  326000    397.49517    7.0121918    90.221593   -168.41021   -38.889326    20469.332 
  328000    411.30605    8.0187779    89.619222   -194.46009   -795.15734    15478.141 
  330000    397.86299    11.403896    78.948809   -178.84367    802.18549    15946.136 
  332000    422.04989    7.6878226    95.858832   -148.89268   -774.19625    16867.551 
  334000    344.15934    5.7736441    74.076469   -237.50467    337.63502     15184.29 
  336000    404.51712    4.6990921    89.850608   -149.53487   -332.15182    17346.928 
  338000    395.35607     12.71238     77.37928   -171.05397   -195.18642    15441.392 
  340000    331.72495    13.281005    89.555976   -230.40897    604.23748    16526.479 
  342000    412.85792    5.7034207    75.215528   -187.25214    1250.7421    14391.393 
  344000    403.27234    4.1088579    87.639902   -163.50793   -1846.8395    13473.678 
  346000    429.10951     7.148736    96.945187   -140.58709     1008.319    14741.796 
  348000    387.31363    6.8726865     84.15438   -181.74395    1562.0569    14545.485 
  350000    395.79943    8.3725199    82.923861   -189.08172   -434.68113    16544.325 
  352000    374.23663    8.7725061    72.541157   -186.71999    759.77529    17283.248 
  354000    425.65994    6.9027562    90.806822   -136.60258    1971.1084    15300.985 
  356000    401.49224    6.3929173    92.217125   -139.20069   -1250.7589    14441.774 
  358000    360.82255    4.8766272    83.612395    -186.3123    -2388.611    15253.931 
  360000    388.29887    9.3168304    84.877291   -141.79692   -1055.8647        15145 
  362000    383.13222    7.0615353     63.26644   -200.41698   -151.06595    16250.503 
  364000    379.54151    6.7979769    101.22309   -155.19788    260.76712     15975.48 
  366000    401.24884    6.4460551    90.454564   -165.03798    286.84769    17731.012 
  368000    421.21392    9.3541375    90.537093    -133.0869   -127.31887     15776.21 
  370000    374.25302    2.6397077    81.139873   -202.51366   -975.63657    17482.269 
  372000    404.17498    11.740944    83.022249   -142.89646   -748.93847    13766.676 
  374000    386.44516    7.1493823    87.631167   -167.10444    -1047.865    15471.779 
  376000    395.30784    3.8523692    76.732125   -171.37759    369.04223    14079.413 
  378000    417.43873    8.7342283    76.863471   -175.80289     279.2355    16884.081 
  380000    473.85421    4.9046487    73.983001   -159.68876   -488.51648    13803.121 
  382000    379.27516    5.8964308    75.932945   -181.49928   -703.78321    13169.456 
  384000      402.939     5.759848    70.907786   -191.25591   -1506.9946    15191.575 
  386000    404.25303    6.5985131    85.364502   -142.31223    622.36656    18283.042 
  388000    392.08241    12.031048    88.562762   -152.72635    1195.8019    16957.626 
  390000    376.56339    9.0420516    69.901342   -197.00965   -764.32808    16005.445 
  392000    362.32286    9.5340746    85.264641   -198.07639   -52.576697    16514.669 
  394000    390.62057    9.1529545    81.678075   -175.79843    -79.87685    17793.121 
  396000    409.79273    7.6063435    76.927833   -187.84194    598.38601    15257.717 
  398000    403.82549    5.4033578    83.238308   -172.94967      698.455     17465.15 
  400000    398.60985    9.6056043    82.670844   -177.41064   -414.26142    16588.074 
  402000    403.77501    6.3697753    87.606856    -145.2371   -1453.3493    15791.513 
  404000    391.22043    3.8676605    81.094625   -150.98984    524.01083    16206.301 
  406000    370.49735    4.7363847    93.761614   -154.21985    2127.4537    13996.633 
  408000    389.75588    3.8578573    79.018334   -186.83242   -243.85185     16549.85 
  410000    402.41753    3.7629917    100.06901   -133.96701    59.093604    17578.642 
  412000    374.41574    5.0524099    87.526087   -169.97883   -394.97732    15921.911 
  414000    398.27454    6.8202184    99.682333    -144.2017   -51.768106    15445.846 
  416000    413.58412     10.76502     86.57137   -171.41726    1217.7303    14535.011 
  418000    426.84109     4.048922    91.585667   -115.59549   -1396.2077    14893.423 
  420000    397.41226    3.0374412    80.993039   -198.91823    500.92423    13856.439 
  422000    424.20756    8.2613034    91.202323   -148.08858   -626.68127    14019.245 
  424000    378.09812     3.955385    96.383997   -154.62429   -1783.9292    13086.409 
  426000    406.05148    3.3312696    81.793849   -147.19465    2352.3787    13396.897 
  428000    395.67967    9.2547135    85.901326   -160.71263    1798.0957      15542.6 
  430000    423.74451    3.1093396    93.124221    -135.8901   -122.69663    16564.424 
  432000    381.41776    5.2956142    85.591963   -212.75569    451.60073    11978.971 
  434000    384.26449    8.9209293      99.1335   -153.35297   -1405.8049    15039.025 
  436000    412.71586    6.2509143    88.570882   -156.56226    816.31668    17003.073 
  438000    358.89366    11.269265    77.074927   -200.44715   -58.927078    14890.778 
  440000    415.81094    10.556452    96.720727   -139.34145   -169.23412    14861.784 
  442000     376.8053    4.3122059    71.067647   -161.58669   -580.44495    15666.351 
  444000    409.73174    5.9251035    91.467319   -141.64617   -2621.1634    13442.083 
  446000    395.00991    5.2601908    97.449423   -134.94673   -21.310698    16108.777 
  448000    424.19445    9.3149942     78.07662   -138.99642    1256.2062    13856.518 
  450000    355.38294    11.918876    105.63777   -167.77969   -245.17105    13707.884 
  452000    416.41533    10.661046    95.857917   -133.27984    970.79697     16090.37 
  454000    375.59738    6.4385786     90.34738   -138.35405   -166.61114    17870.422 
  456000    391.04929    10.279012    103.75744   -141.84683    -873.9617    17205.333 
  458000    358.48421    9.2278638    84.940757   -196.17947   -284.32156    20069.307 
  460000    414.52519    8.1580403    98.140108   -142.56479    23.895464    18243.578 
  462000    425.71959    3.2148646    99.014032    -111.6312    995.67481    16257.044 
  464000    370.59209    6.8601147    94.579086   -157.35109    2226.6231    16834.294 
  466000     420.1027    9.2502461    93.343307    -128.6911    1432.1663    15329.499 
  468000    380.85883    4.1025161    73.364632   -175.45072    958.19699    16311.321 
  470000    413.74324    9.6532243    83.855348   -168.96432    240.20319     14033.25 
  472000    439.09533    9.6171826    76.498496   -139.26571   -47.871918    16349.936 
  474000    413.81116    2.9505583    87.183369   -142.54982    427.66615    14587.059 
  476000    375.31554    7.5058397    82.096886   -183.12589    800.14601    15377.328 
  478000    419.12686    2.2865322     100.9532   -122.44076   -2745.2347    14953.566 
  480000     418.7838    3.5773492    90.195568   -150.29912    1031.8645    13304.422 
  482000    419.81915    8.2785337    105.75082   -124.30142   -1745.3709    14286.046 
  484000    413.27952    8.6543135    93.571223   -129.88955    599.08108    15645.204 
  486000    389.24508    9.4882416    98.860095   -144.98393   -636.00039    14000.113 
  488000    398.14342    6.0386526    73.495134   -188.26954   -152.43613    15564.646 
  490000    387.93034    4.8108136    79.573494   -161.32639   -1295.7346     15868.38 
  492000     385.5759    8.2685384    61.545275   -202.28162    685.79705    14131.347 
  494000    398.42579    7.0148073    80.882774   -183.14245    473.85046    15147.161 
  496000    418.66335    6.9148878    90.596701   -141.86882    46.054913    15915.019 
  498000    395.37447    5.0588137    86.376978   -165.10291    3174.7314     14723.95 
  500000     437.7666    6.0768712    79.392282    -110.6402    987.72424    13892.194 
  502000    403.17415    7.1286028    84.932041   -126.26831   -1624.2971    14473.324 
  504000    415.71135    2.0610585    92.307894   -115.96476    1027.5729    14189.461 
  506000    372.46531    6.6652707    81.652349   -183.28111    828.97201    16008.087 
  508000    383.65306    5.7227148    82.626802   -165.29874   -988.05912    14814.121 
  510000    386.85561    5.6003951    97.076005   -121.42705   -245.40303    15309.033 
  512000    404.23997    6.0570619    79.930949   -139.29524    828.55675    15014.221 
  514000    402.95856    8.1750965      87.3225   -147.80045   -1245.0183    14629.975 
  516000    340.82593    7.1440679     96.38684   -166.50682    66.556082    16381.273 
  518000    409.85162    5.7183491    85.234747   -139.12217     663.5138    16193.438 
  520000    399.98343    3.5119565    89.229292   -129.26307    -3.880011    15599.101 
  522000    379.63785    4.2358304    99.801785   -186.73428    -1282.917    15252.416 
  524000    419.08317    4.0178169    75.763773   -163.21422    1130.2859    15411.909 
  526000     408.3205    11.560244    104.58686   -115.39822   -465.72989     15422.93 
  528000    403.00791    7.5708162    79.639399   -171.81897   -2184.1525    15205.153 
  530000    438.52685    9.1983698     101.0882    -118.4144     -1040.78    15115.221 
  532000     365.5546    5.7106585    85.089655   -166.63259   -246.75025    17161.489 
  534000    412.33293    6.7871801    77.519001   -143.45634    485.75265     15362.46 
  536000    413.79553    5.3545607    81.605799   -141.48975    1364.4766    15430.797 
  538000    411.26248    9.2779925    77.939238   -152.31009   -299.35588     16524.32 
  540000     419.7831    8.9355096    77.622706    -183.2467    1382.9252    14573.438 
  542000    404.86014    6.7490581     83.86749   -132.10298   -359.36758    15837.754 
  544000    401.66433    10.806572    95.854295   -120.45152    1523.8474    18074.428 
  546000    392.16565    6.2850219     85.90445   -144.00276   -90.368201    17709.508 
  548000    367.27411    9.7811121    83.176361   -166.76421    1008.5298    15781.946 
  550000    439.53718    5.0044961    88.756969   -121.48988    512.88802    17078.847 
  552000    389.98668    6.8173178    80.029023   -171.45174    -1296.302    16670.656 
  554000    401.97776    6.9649206    83.181723   -146.90657    -435.0133     15020.22 
  556000    364.07686    13.874977    82.592841   -168.63679    1244.2217    17090.954 
  558000    391.79514    6.6201212    96.533432   -135.84806   -1351.3441    15062.366 
  560000    418.71617    8.0813896    93.911373   -101.34105   -618.13705    16050.119 
  562000     404.4634    8.1455026    100.37212   -108.28572    1327.6522    16943.082 
  564000    356.78602    3.2898589    93.696695   -157.40896     -1399.46    16060.595 
  566000    361.29714    8.5059352    82.947536   -134.78482    738.18748    14208.733 
  568000     421.8455     7.737787    76.122462   -142.58982   -378.02275     15260.91 
  570000    411.34421    4.2678757    81.114015   -142.56066     357.4039    15866.518 
  572000    411.90676     7.395532     82.82336   -145.22365   -1846.2653    14846.365 
  574000    428.94512    3.1411673    100.13207   -120.61523    1988.9813    16130.075 
  576000    412.12981    7.3013913    99.633941   -118.86848   -418.23997    12972.976 
  578000    398.92589    5.6561304    87.112006   -145.36342   -704.89544    16489.698 
  580000    394.81779    4.3565826    92.169064   -100.64887   -121.13942     15966.92 
  582000    425.92684    3.8309992    74.652554   -104.06885    707.60681    16166.802 
  584000    407.92863     2.757888    90.028738   -157.50239   -306.82552     14281.86 
  586000    397.55501    9.4175978    90.578567   -149.59897    2293.2186    15319.491 
  588000    384.16222    4.4594138    81.331262   -189.06369   -580.28125    14891.535 
  590000    450.87512     6.515626    103.91364   -115.47222     857.4486    15123.738 
  592000    370.11239    8.6672955    75.895569   -160.74489    541.37326    15890.602 
  594000     390.6347    4.0767341    94.661308   -170.43968    744.09395    15463.169 
  596000    403.53351    4.0895292    90.674978   -125.26509   -109.29733    14446.903 
  598000    439.31613    10.852489    84.656864   -118.66618   -595.30017    15142.956 
  600000    420.27616    8.2699858    86.766393   -152.36251   -618.97366    14366.523 
  602000    420.20352    4.3081912    84.063653   -159.84485   -372.00784    14988.755 
  604000    395.41031    3.3404897    77.282437   -169.54393   -522.84214    14642.271 
  606000    381.43704      5.63698    95.845319   -165.45044   -1580.0004    14880.732 
  608000    400.40418    6.3482442    97.673082   -123.01029    1323.9615    14449.503 
  610000    437.45775    7.2534049    93.737228   -125.65381   -914.32778    13802.813 
  612000    404.03598    7.8844226    89.717544    -125.2288   -469.48698    16866.174 
  614000    431.36676    11.046323    90.476821   -140.62462   -4016.0427    14520.284 
  616000    399.38356     8.668654    88.589071   -119.78469   -345.64019     13423.65 
  618000    431.82083    4.1694912    94.239618   -100.58387   -1040.1324    15295.668 
  620000    395.66974    7.5830378    95.160195   -162.11638   -853.76278    14013.746 
  622000    384.11916    10.414488    92.225146   -137.69337    27.562079     13637.62 
  624000    413.99583    5.4775504    89.847209   -150.62757   -748.70088    13129.135 
  626000    407.86093    4.6751466    91.228572   -136.32149    1593.9724    16072.157 
  628000    386.59111    8.9434687     85.02417   -158.28374   -457.44953    15449.109 
  630000    432.17382    5.9993061    88.769619    -133.2206     1705.093    14550.347 
  632000     411.0879    10.490652    83.664034   -133.99496    1877.9333    15178.955 
  634000    423.74426    4.6990213    104.52273   -128.42955    683.33495    15636.445 
  636000    457.61551    6.3982633    96.077922   -94.267119   -792.67912    15379.428 
  638000    418.58512    5.3069897    91.351446   -133.33852     840.0482    15725.843 
  640000    422.21493    6.9479639    71.938533   -143.48782   -1556.2165    16573.258 
  642000    444.21982    12.377883    94.399903   -117.78018     316.4761    18125.253 
  644000    426.47328    5.7681178    86.275458   -144.53984   -888.14805    15225.433 
  646000    408.64156    6.7569277    80.629691   -167.94899    1441.8018     15359.83 
  648000    392.93368     4.945536    93.303539   -135.49283   -2214.7131    17077.538 
  650000    402.26558    9.2035211    84.986556   -143.95452   -930.91361    15962.915 
  652000    426.83687    6.2592784    87.430257   -120.65307    614.55291    16581.681 
  654000    431.48476    6.0076782    84.731399   -141.18253   -817.75108    15633.668 
  656000    399.87215     7.613238    91.299643   -128.17842    78.110443     15864.38 
  658000    398.62418     3.104242    86.522426    -110.8114   -1060.6387    17109.585 
  660000    420.28182    6.2400611     87.70532   -107.28208   -116.71482    17873.571 
  662000     406.8612    4.1402686    102.54528   -116.48835   -341.45229    16679.364 
  664000    414.09306    6.4274869    74.453998   -143.91089   -1125.6798    17622.573 
  666000    378.41819    4.4699207    82.887536   -102.22459   -1109.2513    18571.334 
  668000    432.18592    9.4712125    93.863157   -100.75928    236.20355    18590.395 
  670000    425.06759    10.209497     107.2356   -79.411299   -924.27926     16822.29 
  672000    473.58959    8.0754533    95.523691   -98.349763    1861.5857    15453.342 
  674000    380.46403    6.7363038    87.958309   -134.92392     721.8582    16410.608 
  676000    427.03459     10.33833    84.224406   -109.69242    1606.4489    18240.581 
  678000     395.2478     7.357535    82.321242   -123.07658   -847.70641    16760.779 
  680000    398.11653    10.542948     92.25393   -121.47972    534.22423    17992.075 
  682000    414.66685    9.5532696     89.51103   -130.28167   -529.19227    16298.691 
  684000    384.31178    10.627727    98.476971   -126.77561    -1018.717    18592.444 
  686000    506.15056    6.5560759    87.747881   -38.922125   -123.59202    17388.203 
  688000    409.31708    6.2421607    91.845867   -128.60849     1572.719    16897.549 
  690000    426.50653    4.2005564    82.008496   -116.08944     859.0605    14637.362 
  692000    422.24656    11.392394    81.527732   -139.40287   -720.72663     18825.38 
  694000    389.89754    3.6729047    86.337078   -107.14856    -7.572555     14837.34 
  696000    388.12791    6.5301666    104.53515   -103.91272    1505.6108    15442.903 
  698000    439.58928    3.5355405     77.61413   -119.52238   -1212.0935     18161.36 
  700000    418.33773    8.4379858    95.394437   -82.184431   -324.57969    17252.979 
  702000    450.38743     4.428524    89.282941   -79.742924   -226.54441    20554.267 
  704000    404.52437    8.3766108    100.73639   -83.018347    448.92298    17267.307 
  706000    453.28816     4.673291     90.53184   -51.514364   -477.01115    16167.925 
  708000    423.66229    8.3263028    87.762197    -60.18076    111.89323    21105.801 
  710000    448.06027    3.8185162    100.85248     -61.4035   -87.940232     17411.84 
  712000     435.1827    7.5866344    100.77576   -46.819526    143.39501    17218.366 
  714000    475.62485    3.9181301    94.204006   -62.000197   -420.97325     16801.63 
  716000    483.90336     5.091781    94.576195   -50.882166     181.3047     19776.63 
  718000    429.01872    15.898209     97.92655   -60.554721    427.64457    18984.819 
  720000    413.06553    8.4402867    83.371881   -52.477753    39.994091    15680.536 
  722000    424.62554    12.442871    93.100101   -53.516639    1630.8023    16137.991 
  724000    415.43823    6.4543421    82.670835   -69.153978   -4.7795356    16764.847 
  726000    419.90652    8.3966077      98.1453   -64.634948   -167.18353    18276.852 
  728000    448.27803    9.8340452    105.79865   -47.496915    241.99376    17198.722 
  730000    410.83122    7.3822031    84.216147   -60.517835   -1228.4414    17510.512 
  732000    411.09335    2.2077312    97.698429   -27.185513   -1581.0639    17809.446 
  734000    419.55901    7.6376071    88.811301   -66.423341    1003.9176    18135.001 
  736000    422.29222    4.2473062    82.007762   -106.23538    690.43477    19361.825 
  738000     421.3269    2.3063217    83.943887   -86.760195   -1159.1132    20961.179 
  740000    438.36554    5.1568101    85.660695   -90.855491   -1197.3498    19154.123 
  742000    409.60029     17.12911    85.798973   -81.803546    332.74982    17910.427 
  744000    445.09136    7.5454574    102.72901   -36.962949    951.01183    18611.445 
  746000    394.70637    4.0828758    95.270704   -56.537151     -520.178     21408.53 
  748000    449.99447    8.0590495    94.274729   -47.358582   -573.62565    19465.893 
  750000    415.63815    2.6862461     105.5707   -47.231957    89.089563    20246.694 
  752000    433.02831    7.4039435    103.57202   -57.000447     469.9514    17131.052 
  754000    424.41282    8.5589103    97.796831   -47.622611   -610.69745     16684.51 
  756000    403.53616    7.8456155    95.432703   -80.932971    1702.9313    16762.772 
  758000     458.7659    3.0418371    92.944183   -53.413808    56.447076    18642.258 
  760000    438.01955    6.8642588    77.041933   -97.651308     476.4802    17347.022 
  762000    450.08858    6.8752952    95.698013   -43.960636   -615.33686    22387.767 
  764000    439.76444    3.3457577    79.393147   -87.802154   -428.15869    15448.325 
  766000    444.30083    5.7676452    96.511453    -60.32475    29.056117    17852.229 
  768000    410.20331    5.7115196     90.59973    -132.3889    240.41055    16676.741 
  770000    451.37393    8.1605857    96.536682   -90.274381    1074.3177    15010.546 
  772000    394.32056    3.9678804    98.405167   -114.68818    1011.2362    14440.587 
  774000    446.63484    12.150851      82.5719   -113.50685    995.54379    15696.099 
  776000    408.94996    3.9802238     89.57409     -156.998    1055.5504    14964.023 
  778000    408.11596    9.5545498    100.15698   -133.50367    1649.0085    16748.487 
  780000    448.66681    5.0909956    89.168307   -88.004936     14.25702    16340.166 
  782000    452.14342    8.6899721    102.70386   -73.024478   -266.67628    14186.332 
  784000     399.7715    10.433463    87.192869   -154.57688    256.86214     19764.75 
  786000    426.52833    5.6932347    82.983301   -124.96189    1997.0787    16506.702 
  788000    425.65643     6.426606    92.827878   -107.01555   -281.00709    13894.718 
  790000    437.20572    12.579998    96.190413   -112.12958   -207.26796    15157.607 
  792000    438.24073    5.2332865    93.381018    -79.75137   -1027.1372    17459.457 
  794000     419.5686    4.5054151    92.107733   -75.113801   -464.92322    15785.364 
  796000    386.78312     11.37694    104.13516   -83.879927    -253.1164    16178.654 
  798000    445.44977    4.9336151    106.88262   -70.598369    701.60727     17332.98 
  800000    447.92157    6.2889965    91.036372   -93.326915    324.96783    17706.492 
  802000    462.49606    2.8909809    82.205122   -100.07909   -1925.0531    20931.893 
  804000    447.36392    7.5685368    78.498233   -93.910211    399.39391    16057.979 
  806000    467.93417    6.4773352    92.008508   -97.802227   -1599.6991    17654.445 
  808000    441.47222    8.8333647    99.887901   -83.848091   -485.12125    16520.967 
  810000    450.21853     7.537315    94.116827   -105.16079    1521.0535    16008.394 
  812000    425.11503    13.315688    88.129404   -114.55677   -76.576106    16340.927 
  814000    430.35696    4.9436063     97.64552   -110.51076    31.549738    16378.088 
  816000    473.28242    7.7947055    84.450552   -83.673483    477.93054    14819.813 
  818000    481.95857     4.233162    96.295315   -81.530461    606.77587    15452.513 
  820000    443.42442     4.977761     96.81812   -87.121768   -1330.2407    16805.511 
  822000    440.52708    3.8065081    118.27794   -59.056128   -306.96097    17396.732 
  824000    425.51472    11.107636    107.02455   -87.213594    311.57281    16690.483 
  826000    411.97703    6.8920528    90.297385   -98.452407    652.73799    17522.575 
  828000    468.54036    4.1363088     98.03417   -48.981444   -924.50882    15827.344 
  830000    384.27135    1.9530079    112.35488   -58.565739   -1220.2383    16897.774 
  832000    429.82694    6.1569982    108.66563   -102.59874    427.31574    16644.589 
  834000    407.19478     3.697143    95.421795   -80.184899   -394.21173     21186.61 
  836000    439.15256    5.5994154    93.704356   -70.049793    918.91368    18368.616 
  838000    444.66555    8.1245259    98.304391   -104.26399    263.37715    16335.963 
  840000    427.08173    4.5633288    95.683591   -121.94165    1484.6542    15626.605 
  842000    457.18041    9.0298419    85.585689   -68.973783   -14.159129    15908.438 
  844000    436.16955    8.2535847    91.136354   -88.652876   -199.83109    19382.233 
  846000    417.22758    12.291185    87.718392    -83.98077    1679.3441    16596.493 
  848000    469.43244    6.2929938    89.663514    -47.90381    1118.2318     16423.66 
  850000    444.22109    5.4557595    95.082548   -79.727894    -150.1518    19928.784 
  852000    412.82821    11.153336    95.922635   -84.516652   -909.77178    18270.303 
  854000    446.79607    2.7926544    105.48409    -68.28266   -279.20137    16521.573 
  856000    405.42421    10.562932    94.657753   -117.24488    157.53608    18375.462 
  858000    445.21866    3.6969092    95.934566   -90.820224    645.63531    17625.612 
  860000    433.99072    4.9534965    99.113855   -88.204588    58.001972     20644.81 
  862000    446.23268    6.2400287    83.463805   -133.88007     170.4721    18864.369 
  864000      425.891    6.2554522    86.497681   -110.64759     904.3839    19815.331 
  866000    468.50045    5.7521859    93.304942   -89.377548   -603.22414     17791.91 
  868000    427.61192    6.5407967    110.76778   -61.958521    208.44126    18610.634 
  870000    487.02065    2.6633031     105.4893   -70.638394   -589.45494    18375.834 
  872000    404.47497    5.7839601    96.172978   -126.63961   -11.623479    16050.302 
  874000    425.06158    3.9946152    116.68714   -40.343634     -444.708    17671.483 
  876000     461.1219    4.1261755    99.529496   -70.664536    214.91486    17977.042 
  878000    413.45056    7.8870788    111.18461     -75.1226   -464.28842    18288.593 
  880000    417.58506    3.2143668    92.085069   -69.599524    -1217.606    17707.162 
  882000    429.73947    6.7360101    105.86149   -29.724675   -25.497036    19217.951 
  884000    454.00081     9.823187    80.768695   -61.661871   -1320.2748    19974.532 
  886000    473.95038    2.8745844    106.27804   -31.006443   -754.28972    22677.199 
  888000    446.65628    5.6318603    87.097188   -95.885632    1401.2921    16755.617 
  890000    458.47821      5.65104    91.305483    -76.16365   -1321.9998    15858.011 
  892000    418.56218    6.9881148    112.15576   -101.41856   -157.38847    18381.113 
  894000    446.16078    8.8779499    104.41161   -104.47465   -580.63799    17348.152 
  896000    405.98422    8.3849714    81.947899   -92.978799    1838.3217    14723.891 
  898000    412.41385    9.9607281    100.38025   -100.22053    1064.0184    15275.805 
  900000    406.86991      9.52778    109.34498    -84.74205    1361.1273    15239.054 
  902000    470.31688     3.414348    93.674872    -65.36601   -89.041817    14019.919 
  904000    430.44506    5.3101047    85.336475   -121.25423   -917.99622    15162.528 
  906000    438.95454    6.8795338    92.749936    -112.8656    1485.2895    14031.718 
  908000    442.16213    10.838335    104.27498    -71.09768   -2172.3375    14385.222 
  910000    456.57866    9.6528785    90.088126   -84.658745    339.65541    15802.634 
  912000    463.56262    2.4633951    93.649546    -51.00677   -490.92323    19646.756 
  914000    454.67279    7.9310526    109.01981   -54.714366    1318.7838    16186.369 
  916000    418.07604    8.9622296    108.18462   -84.451473    272.51544    13439.257 
  918000    474.49087    4.3187282    112.66502   -26.955853    313.97377    15419.511 
  920000    417.16674    4.8938143    81.169451   -109.52912   -661.49791    15437.107 
  922000    408.24277    5.5997416    98.661929   -121.76401    1199.5858    14274.634 
  924000     441.7635    8.4695087    93.677102   -97.210312    683.90545    15211.719 
  926000    430.82613    5.8392745     120.8586   -32.706641    -87.02573    15495.839 
  928000    472.44404    5.4548275    98.538688   -74.443588   -92.152072    17141.263 
  930000    388.24077    4.6474109     82.04727   -87.134651     185.4925     17078.72 
  932000    467.01779    9.1027732    83.666633   -95.266631      1432.47    15981.126 
  934000    439.02012     5.536408    91.092597   -71.202052    930.48854     16322.91 
  936000    406.51145    4.3349901    78.304468   -138.82985      46.3805    16026.533 
  938000    442.93823    13.449181    111.82735   -61.697148   -707.13123    15655.677 
  940000    456.80709    14.276912    105.35813   -68.850235   -487.14041    17634.295 
  942000    428.92982    6.3013273    84.022006   -92.193512    1226.8802    14254.979 
  944000    456.38923    8.7805444    93.443071   -66.123232   -274.32195    15757.526 
  946000    504.16072    5.1325343    89.011674   -77.760468   -2348.0463    16274.726 
  948000    420.78135    3.9433467    98.582981   -101.95499   -2889.6012    16594.224 
  950000    441.38973    12.693274    105.79727   -83.112594    800.15334    16057.159 
  952000    436.25172    5.5378956    89.329857   -91.758518    1056.3375    19781.912 
  954000    436.35475    4.5050114    105.78418   -90.056005   -1073.4995    17972.333 
  956000    442.24532    3.0497903     93.79128   -115.10258    2074.7935    14901.981 
  958000    425.80976    8.3167899    94.261416   -110.56818    612.66665    14791.669 
  960000    442.92491    7.4432925    104.31294   -80.627806    445.07688     14205.35 
  962000    456.28245    8.2254352    96.786429   -83.045028   -1137.9982    15609.817 
  964000    456.63126    6.1916809    98.732397   -77.667687   -555.91368    16561.949 
  966000    473.37759     6.605385    86.275865   -82.493915    884.91412    15670.625 
  968000     432.9379    10.616433    98.820992   -98.018954    7.6471531    15369.347 
  970000    444.64189    5.9043334    97.187135   -102.17821   -324.82319    14987.794 
  972000    522.20977    6.7142784    98.423503   -30.082513   -322.66145    18045.754 
  974000    446.70778    5.8913478    108.14355   -54.319942   -66.621561    16637.951 
  976000    481.67085    4.3704626     91.17266   -74.978284    -33.63655    16644.173 
  978000    462.63828    9.7070448    90.529858   -80.174222   -133.89191    14277.784 
  980000    437.32561    4.6240482    92.628513   -75.237051   -672.25085    15894.201 
  982000    461.13289    5.7533554    99.469552   -56.594626    265.63147    16330.308 
  984000    409.27504    7.1508824    104.48932   -61.509262   -537.37859    16724.514 
  986000    465.28536    5.7188176    102.62384   -70.521669   -1016.9449    15715.247 
  988000    416.41543    8.6893751    92.877326   -54.019791   -35.728841    13686.718 
  990000    444.31057    6.4647831    101.45144   -82.590844    -221.3679    15057.295 
  992000    464.40134    7.2321822    94.585431   -32.272821   -697.56522    15510.145 
  994000    426.55954    6.4459655    94.172899   -78.622089   -881.74994    17082.336 
  996000    421.18257    3.9913647    104.02752   -61.381701   -1532.8826    15430.682 
  998000    484.66225     9.606527    102.53619   -11.256973    195.07683    19664.981 
 1000000    441.01611    5.6220822    104.21993   -31.032054   -266.39261    18994.279 
 1002000    485.20924      2.62625    109.43454   -38.626083    -175.5129    16722.357 
 1004000    421.74639    8.8374855    96.103469   -54.379041    2160.2225    15827.208 
 1006000    495.16256    9.3308536    96.324934   -1.8711147     589.3921    16201.082 
 1008000    435.74467    5.1803316     109.8147   -24.608795   -1286.0729    14623.094 
 1010000    448.05614    4.1058037    97.130891   -34.887173   -35.610236     16415.79 
 1012000    455.15667    7.1638632    102.14866   -26.670956   -1762.4446    16657.873 
 1014000    439.01648    3.0792508    104.09502   -77.710872    743.35796    16787.148 
 1016000    443.27579    4.4031002    96.681694   -66.509288    -96.22007    20117.823 
 1018000    412.38913    7.5568006    96.479631   -22.938146   -1125.1142    19552.571 
 1020000    466.60075     5.322075    103.46705   -17.546145     1760.859    23295.458 
 1022000    437.42267    6.1719351    102.17232   -33.101186    77.831958    14431.612 
 1024000     441.4021    4.4926532    89.587377   -27.182077    158.90458    15791.461 
 1026000    462.21257    5.7080251    112.11344   -5.7572257   -834.70576    15554.597 
 1028000    443.77797    4.4845801    111.39905    4.2727292   -88.475876    19096.109 
 1030000     439.5985    9.2442551    114.86471     3.214902     358.3657    18618.297 
 1032000     495.4866    5.9682383    108.69824    17.915493   -662.87235    17065.517 
 1034000    438.50998    7.3378756    99.080504   -32.875586   -1180.6958    24819.144 
 1036000    491.40221    6.3765023    112.34392   0.71579983   -1736.1087    20443.762 
 1038000      397.967    5.6766704    114.59588   -35.360189   -380.61938    20097.211 
 1040000    443.05028     3.952941    109.07266    2.6237499    295.09135    17821.695 
 1042000    408.66728    4.6775081    98.542613   -9.3240323    831.37091    16382.096 
 1044000    461.31911    12.355698    86.986313   -44.617232   -476.57722    16858.633 
 1046000     414.0066    4.9805375    98.741764   -53.010473   -318.68444    15942.853 
 1048000    489.75961    3.5160087    97.750879   -5.7442224     804.3838    15630.392 
 1050000    455.04557    6.2525533    104.78606   -9.6215581   -1261.7035    18788.516 
 1052000    450.86294    4.6908734     90.79459   -45.632422     1113.075    19191.686 
 1054000    467.86492    5.5324133    96.931241    5.9061342   -841.74977    17665.344 
 1056000    496.95078    6.1285366    98.852728     11.97218    983.46984    18800.483 
 1058000    472.34943    3.4118329     90.97332   -12.831306   -675.83696     19187.78 
 1060000    419.31711    5.9328862    121.77863     30.69455   -327.79473    23246.052 
 1062000      434.817    5.3355834    98.861627   -9.4511166   -841.06775    18235.025 
 1064000    457.58905    3.3629948    105.91695    22.398997     1505.125    15953.898 
 1066000    465.70747    5.2861629    116.65933    32.934735    1266.0931    16735.691 
 1068000    492.29129    4.1125495    98.762941     61.83287    715.32358     18947.11 
 1070000    470.56139    6.6723381    107.71572     21.87654   -967.66818    22936.202 
 1072000    444.24026    6.1645766    101.53693    5.7576694   -245.24816    26991.507 
 1074000    492.68198    7.6027485    101.67829    9.7303121   -597.59921    25509.923 
 1076000    496.45511    7.6518413    82.878222   -8.4064442    -506.1667    25140.123 
 1078000    427.32202    7.3031571    98.040241   -18.903581   -307.91105     29413.52 
 1080000    475.03141    3.5927878    107.37169    7.3461442    79.785198    26440.993 
 1082000    466.36154    3.3991945    90.250904    45.931512   -54.453467    30445.656 
 1084000    450.42974     10.95634    113.43299    22.835429   -55.908291    25625.136 
 1086000     404.2187    6.9655869    100.41391   -21.418908    130.42016    24229.338 
 1088000    491.40145    8.2740825    101.20939    34.723746    1117.4882    23845.631 
 1090000    469.76658    2.3642882    88.449641   -14.025778    592.43596    24044.001 
 1092000    445.04797     7.506209    120.44786    30.462971    780.50748     21211.93 
 1094000    480.79272     9.286722    126.87497    58.399518   -1076.8085    21531.342 
 1096000    430.81783    10.278095    91.583665   -18.994083    277.44884    23951.415 
 1098000    438.11869    10.685186      99.7404    19.394542     295.4743    21795.298 
 1100000    454.80972    9.0583058    110.05909   -1.1655877    389.23743    21052.028 
 1102000    443.37586    3.4973179    97.615683   -21.272618    480.48778    26172.547 
 1104000    467.93757    3.1441624    101.70107    10.176644    127.61881     20420.84 
 1106000    523.02364    9.2884693    116.08896    71.064863    369.42709    28727.159 
 1108000    509.73505    13.279981    105.85857    79.268719   -190.66147    25170.873 
 1110000    476.03121    6.6423164    99.523159    33.682858    245.76964    29304.824 
 1112000    497.57853    3.7431748    102.69538    22.356321   -448.89925    23958.853 
 1114000    424.69293    5.0662703      100.069   -12.853657     948.1693    24362.737 
 1116000    452.53789    3.9374117    109.67933    1.0513755    774.35809    30687.896 
 1118000    468.77219    2.6527818     100.4019    43.735972   -621.95448    26352.909 
 1120000    455.38771    3.7653326    100.02483    32.425263   -136.89759     24080.46 
 1122000    489.21821    9.5536648    104.04217    14.370299    1519.7558    24307.087 
 1124000    426.72635    2.2842379    100.58571    32.502177   -117.29235    23800.102 
 1126000    480.69005    6.5401831    95.938757    46.170877    319.90247     21713.15 
 1128000    434.96053     8.862108    107.63212     58.00181    127.65573    22809.692 
 1130000    451.10913    10.919304     101.6143    20.310674    1150.0878     24714.48 
 1132000    449.26619    7.0864917    109.75749      29.7785   -648.16552    29448.501 
 1134000    500.69857    9.5919766     111.0984     48.84426   -569.92378    20033.987 
 1136000    475.32545    1.9857227    103.85179    37.663515    1616.1991    16454.423 
 1138000    446.20435    4.9176596    103.89589    34.243223   -783.01664    17885.894 
 1140000    471.58816    3.6955892    91.200495    21.262556    -450.1477    20632.916 
 1142000    474.83075    4.3577794    114.32948     14.82834    190.02402    19654.106 
 1144000    565.97582     4.158148    107.51086    89.758773   -779.66629     25073.89 
 1146000    438.57154    4.1001927    91.686394    17.943576   -480.55411    20166.675 
 1148000    494.48394    6.2171713    109.45334    60.669588   -530.84341    22875.582 
 1150000    507.85551    9.4173497    92.008329    51.059106    237.99887    24410.785 
 1152000    475.70366    7.2403166    111.69632    47.195719    -646.9208    17765.924 
 1154000    479.15189    4.2191658    130.99397    58.012907   -458.79896    19442.225 
 1156000    437.96321     6.740389    118.69395     22.41717   -1521.2085    21625.763 
 1158000    501.63168    2.8670441    103.45812    51.437083   -660.17387    19571.907 
 1160000    473.57006    3.4135994    95.642195    5.5379986    537.41324    26213.399 
 1162000    419.89306    3.4576371    118.34136   -2.2091334    145.61551    23838.621 
 1164000    450.49516    7.7381413     103.8931    7.9310247    418.66098    26521.718 
 1166000    432.61467    5.5132783    119.15166     8.656102   -1623.9409    26698.866 
 1168000    491.82074    5.5124497    83.020061   -3.7780661      138.634    27500.031 
 1170000    454.73698    1.2471869    104.65081    10.590173   -6.0060823    26996.375 
 1172000     497.8272     3.584438    105.90519    65.544774   -591.06387    25737.713 
 1174000    434.00196    9.5440172    112.31424    28.547136   -337.38174    26971.524 
 1176000    434.43528    8.8893539    92.766696   -8.9672848    548.93462    29063.742 
 1178000    503.56241    2.7811513    91.867423     34.84739   -308.45565    28413.475 
 1180000    451.91431    3.2123002    98.283302    33.599285    767.54952    25318.818 
 1182000    496.15154    5.4076865    106.94038    79.332778    126.49181    27796.745 
 1184000    515.17804    3.7899728    93.384327     13.36684    730.24226    26842.036 
 1186000    459.06874    4.2623221    103.24707    43.497419   -328.05044    25529.203 
 1188000    422.12993    5.4283228    100.48573   -1.8562373   -694.78262     22213.32 
 1190000    406.30077    5.4272271    105.74126    29.245415    627.32874    22948.458 
 1192000    507.91981      9.42322    127.75011    82.636715    658.00911    21499.863 
 1194000    514.41814    3.9204332    89.839141    63.791162    1589.4239    24306.944 
 1196000    430.90844    3.6453394    108.66596    45.351654   -1265.3692    24271.737 
 1198000    481.70162     2.840066    115.07581    62.688058    -57.47816    27540.737 
 1200000    443.48839    13.027318    114.68227    70.119246   -577.40654    32832.615 
 1202000    479.66331    8.2538857    89.858607    36.821335   -221.99875    27509.686 
 1204000    477.34341    3.3169786     88.75561    29.722515    422.42861    28986.408 
 1206000    446.35147    2.7456419    120.14817    61.705446    -224.0287    33946.924 
 1208000    491.71884    4.0693503    101.80508    40.436958    421.60992    33570.569 
 1210000    470.67866    4.5721644    116.57047    116.05198   -531.74186    31935.128 
 1212000    493.82706    7.1327047    98.827386    66.024184    51.570934    32657.188 
 1214000    469.56874    3.5442295     102.3347    41.999112    405.06411    34043.564 
 1216000    460.40497     5.759119    102.57904    45.309814   -1016.8069    28312.116 
 1218000     440.0759    6.8308636    89.513312    45.798493   -152.82255    22584.366 
 1220000    489.47952    4.1628456    94.727703    60.463085    931.75539    28293.561 
 1222000    465.77845    2.4362099    123.72352    69.318001    530.40095    25154.876 
 1224000    465.54076    4.9163187    123.20847    77.231122     1662.389     19176.44 
 1226000    440.83765    6.1118701    107.87533    60.491836    10.759899    23009.861 
 1228000    445.21061    4.7207851     109.9871    25.105795    -911.3815    20727.632 
 1230000    438.93355    8.6261469    98.028687    45.045253    804.04366    21742.478 
 1232000    453.92403    6.4588489     103.3215    50.158008    1101.6131    22937.572 
 1234000    462.18765    6.2756816    120.36587    69.999068    972.99531    26977.686 
 1236000     469.3153    8.4577399    114.02357    66.199201   -381.43683    30208.846 
 1238000    426.55643    5.8490771    123.18725    60.103925   -216.60034    30614.432 
 1240000    416.06608    3.3111598    101.89822    41.119806    388.85042    30989.823 
 1242000     472.2093    4.6840786    125.31793    109.92095    244.35144     29163.51 
 1244000    472.80334    4.5275301    115.31971     69.99161     580.7291    30617.361 
 1246000    459.69193    2.2776345    103.26916    42.646956    279.88981    27911.182 
 1248000    472.16124    5.0871921    124.96063    58.818765    565.13275    30951.003 
 1250000    449.11148    4.3916528    103.10566    29.127575   -330.81739     36365.18 
 1252000    527.60318    5.7900606    125.27361    128.86969    938.50576    28498.242 
 1254000    473.10953    2.8914937    112.46321    75.149497    910.23323    25164.865 
 1256000    485.22223    4.5727288    111.76284    87.820449    -11.50709     26611.67 
 1258000     421.1543    5.7417009    118.61873    47.970963    382.90296    26972.548 
 1260000    539.77928    4.8521832     97.21557    130.57948    -447.9267    24417.987 
 1262000    478.59202    3.9824321    118.98599    108.84784    6.5050791     22239.69 
 1264000    513.41917    5.0627418    115.24883    97.104409   -366.71593    20140.522 
 1266000    426.51378    2.5868202    91.859624    26.067754    351.87295    23868.652 
 1268000    477.44641    3.3677243    105.15294    58.793396    152.02584    24675.682 
 1270000    464.80176     7.097427     111.0793     87.21015   -982.50908    26574.281 
 1272000    482.04568    3.2661186    111.67408    39.695562    855.39735    18269.004 
 1274000    450.24318    3.7936942    111.08386    10.419641    2673.0943    14721.175 
 1276000    516.99646    5.2082638    106.07041    83.377384    652.51421    14148.671 
 1278000     491.1223    2.3167101    97.967884    73.998616    24.517808    17635.203 
 1280000     479.3253     6.994346    113.50215    84.819981    1520.6903    20176.969 
 1282000    480.60115    3.2662789    89.176088    44.906104    357.44507    22923.389 
 1284000    518.89809    3.1325936    90.400055    69.909583    852.78112    17291.906 
 1286000    474.29743    5.1194383    99.830298    61.984237     308.4614    28667.349 
 1288000     463.5604    3.5615322     88.72871    35.916493   -941.00157    19912.648 
 1290000    472.20098    4.9894838    112.98855    43.320862   -145.96853    21122.575 
 1292000    452.70602    6.7595502    113.52994    57.360788    326.07236    25186.161 
 1294000    436.64086    3.6766052    102.54041    50.191596    689.72155    20667.221 
 1296000    538.85507    2.8254295    112.50018    120.40526    504.80426    15734.971 
 1298000     458.1374    1.9216973    112.29577    64.527484   -741.30164    20297.215 
 1300000    454.43895    6.0063304    116.28726    77.921118      862.507    25165.052 
 1302000    508.12452    1.8921315    90.392264    65.232424    666.37582    17672.906 
 1304000    493.65043    3.6277432    108.87675    85.870823   -455.62768    16882.101 
 1306000    534.46845    4.3259772    109.39358    116.69995   -319.82931    19103.967 
 1308000    455.83545    2.9572283    110.13573    77.905943    1191.7314    21282.263 
 1310000    483.62111    8.3180696    116.89836    106.82211    1238.8292    21896.724 
 1312000    470.87095    3.5155862     110.6621    67.410299    800.13564    16932.036 
 1314000    493.44976    2.9796561    120.39638    84.493047   -409.28607    16859.308 
 1316000    455.93554    11.248386    113.36294     65.86033    2031.6699    16049.635 
 1318000    474.31658    3.6468856    106.88441    74.657648    16.371481    24238.305 
 1320000    436.29141    4.1404574    115.18512    71.147193    600.79968     23176.58 
 1322000    433.04348    11.113699    116.31495    41.272135    260.62163    24077.878 
 1324000    524.42533    9.0663804     105.7279    88.277174   -91.836877    25870.963 
 1326000    480.60874    5.7151655    117.21448    67.801944    375.10579    27134.856 
 1328000      491.188    5.5498777    95.835166    54.277118    627.66963     27871.38 
 1330000    523.37028     3.164021    113.75081    111.84735   -98.434005    24125.961 
 1332000    492.57695    5.5933151    104.87782    96.054395    436.36473    23537.572 
 1334000    530.11625    3.3717296    100.69738    74.772536   -663.37436    24737.285 
 1336000    479.30925     7.092252    109.71137    97.711762    859.44177    21860.803 
 1338000    507.05151    3.7801148    115.59098    97.961934    191.11529    28151.266 
 1340000    480.29063    4.3286521    113.84714    59.148979   -1149.5227    28437.604 
 1342000     473.8653    7.6112243    119.22951    54.642259   -577.20734    19824.113 
 1344000    499.37783    4.7774671    139.46299    102.55815    601.67217     23654.33 
 1346000    473.50101    8.9017625     116.4733    68.545809    1373.8724    22286.097 
 1348000    489.54584    4.8502491     105.2664    85.801264    380.05995    21112.337 
 1350000    539.57162    5.0929475    116.55466    122.95361    656.42746    21889.114 
 1352000    488.80682    8.6816933    110.25307    60.619883    583.89087    22427.472 
 1354000    475.86315    6.2293245    103.20591    70.324549    317.82568     19693.39 
 1356000     473.6909    6.2014448    104.47063    44.754745   -709.12111    16989.523 
 1358000    450.18881    3.7478335    108.02112    47.834708    1499.6193    21404.204 
 1360000    453.75506     3.282592    110.98588    59.515386    765.74793    20486.131 
 1362000    545.42971    1.1254003    93.875416    73.436501     194.1721    21850.919 
 1364000    492.20623    3.8170783    106.00898    73.382414    782.70854    21619.675 
 1366000    450.85699    6.4758803    110.03776    69.964456   -210.13524     20493.01 
 1368000    499.32075    3.2267297    106.10368    107.01987    227.95162    25409.486 
 1370000    528.61625    8.5919421    119.57178    158.75565    762.38512    19622.385 
 1372000    496.05129    4.8592533    109.77022    114.00363    1216.5676    16899.765 
 1374000    511.31426    3.1605054     102.2846    130.40112   -864.62034    21004.172 
 1376000    486.07814    5.4783765    93.822333    57.366325    269.24034    20897.512 
 1378000    495.77822    1.8488869    116.78514    93.795696    829.36887    27655.111 
 1380000    506.23289    7.0184881    100.36817     91.39563    610.48196    23815.534 
 1382000    454.13987   0.76940559    114.60664    55.708523    484.34908    24143.548 
 1384000     514.1308    4.0059461    123.13226    132.54609    333.56575    25271.971 
 1386000     466.5675    2.9046817    107.73904    61.987288    16.266645    27309.415 
 1388000    511.77645    12.584776    118.09702    142.21682    907.93912    25134.524 
 1390000    509.50057    2.7006703    103.44824    110.48942    236.88645    21649.355 
 1392000    484.89289    8.9145662    119.89688    156.74066   -388.26788    24093.402 
 1394000    511.86152    3.4609174    116.80076    110.90054    74.172508    25035.793 
 1396000    448.67036    6.0980572    100.97423    62.793678    500.92653     24139.95 
 1398000    506.93255    4.3892769    107.91552    98.369823   -921.67825    30943.593 
 1400000    478.48071    5.4212544    118.08761    106.58143    136.87777     27898.54 
 1402000    533.61681    5.4078644    98.871892    124.65115   -20.643043    35875.122 
 1404000    523.36892    8.0468588    129.11545    167.59176   -179.01555    42980.027 
 1406000    559.29059    2.5015177    117.47821    141.44048    665.02453    43842.469 
 1408000    480.95018    2.9224001    121.73024    94.801081     306.2272    29361.161 
 1410000    454.35638    5.2621133    105.63912    62.167569   -511.57823    20133.973 
 1412000    465.56985    4.4348726    128.54168    91.159846    100.33188    20252.013 
 1414000    480.40255      6.33054    114.45893    104.50577   -35.770801    24796.481 
 1416000    475.95349    2.9478145    122.56985    110.78121   -324.44104    31133.025 
 1418000    461.52573    2.5110493    113.45709    71.107078    -71.23512    31093.364 
 1420000    491.60162    5.3348753    112.76702    79.848374    1149.9055     24784.09 
 1422000    554.34256    10.760124    120.72047     146.4596    1351.2538    21117.786 
 1424000    506.40621    5.7334933    95.008114    76.426456    547.17403    21951.357 
 1426000    489.62699    6.4851687    112.45534    91.604347    976.20906    20962.628 
 1428000    491.19213    5.6545442    112.41599    61.739571    997.14531    23253.666 
 1430000    494.91983    8.5634381    104.21395    40.823687    512.96452     26171.26 
 1432000    494.27658    5.2945357    121.05275    114.96256   -957.38512    28378.213 
 1434000    540.53042    2.6111401     108.8854    119.49233   -496.33715    29535.141 
 1436000    489.16809    5.8050438     96.99954     90.98901   -265.19697    28172.699 
 1438000    510.63692    5.3574777    117.93365    122.38753    109.13752    32601.265 
 1440000    520.83467    8.5655801    123.57869    131.99199   -155.16821    23315.996 
 1442000    499.06054    7.3660078    108.27227    121.40334    231.03463    25487.849 
 1444000     459.7926    8.7555059    98.331856    115.90263   -52.724226    25500.917 
 1446000    455.82906    7.2689414     113.2247    112.47689    707.54899    23901.349 
 1448000    479.91883    1.4608914    116.92243    122.02326   -236.97992    29474.437 
 1450000    480.78437    4.7343368    98.148149    69.958055    364.54687    24120.364 
 1452000    463.71875    7.0376175    126.61454    95.485435    1271.3631    28660.743 
 1454000    485.69332    4.3432798    113.20587    96.055459     173.4109    33492.076 
 1456000    536.24495    3.3036609    111.25249    87.222519    446.44191     29682.13 
 1458000    536.41823    3.4631497    107.56272    166.30781    181.12516    33492.952 
 1460000    500.45898    4.5642815    119.97016    136.46504    145.39648    41548.534 
 1462000    469.95554    5.4002945    115.08375    86.964752    170.78799    44472.646 
 1464000    527.59627    3.4990245    113.82794    111.00577    127.15204    35400.751 
 1466000    527.50658     3.996029      125.571    86.415966   -491.76077    26124.308 
 1468000    477.23345    11.599206     137.8022    116.73167   -193.90286    24087.882 
 1470000    507.23653    8.6312961     118.9265    104.21855    174.32863    21632.259 
 1472000    504.75805    8.4737275    113.10519    100.80428    63.981753    24912.342 
 1474000    478.94887    4.4376325    139.71096    103.80117   -198.14086    27357.138 
 1476000    486.92395    2.9165843    113.88257    117.86717   -479.63875    21917.966 
 1478000    522.30201    2.1051304    121.45182    130.81002    557.25759    25520.298 
 1480000    479.78006    5.8304702    96.720211    66.536887   -460.88747    25993.689 
 1482000    466.66654    6.0568622    113.01721    119.12583   -147.10701    37657.441 
 1484000    524.78353    4.6406632    120.03214    150.14308    808.29091    26268.218 
 1486000    457.46025    6.3408401    138.43575    105.02986   -178.46691    21764.934 
 1488000    521.19574    5.4524634    146.09428    164.69298    644.79841    23274.636 
 1490000    528.67847    4.2695392    110.04755      128.488    684.01613    31857.121 
 1492000    455.70379    8.7688692     95.69302    69.649166   -267.01686    26300.842 
 1494000     451.1116    2.0832631    131.48842    118.05998    47.496979    22320.202 
 1496000    476.40859    4.1403631    127.02007    165.11442    117.67509    27474.821 
 1498000    517.38228    6.3060952    116.84465    144.76569    138.80752    27443.723 
 1500000    531.28795    4.8298142    127.98607    172.68886    636.19461     29072.33 
 1502000     473.7312    4.3091409    124.33437    126.65263   -139.94535     22179.22 
 1504000    440.72814    5.5094474    114.23801    70.225007    -253.7985    24541.472 
 1506000    456.30945    5.3147421    109.68783    70.301323    -1048.302     23854.31 
 1508000    515.70554    5.2665907    105.17918    115.67584   -516.99374     23669.43 
 1510000    483.84248    2.1940831    85.245701    58.590892   -664.60925    29698.936 
 1512000    475.76865    10.007054     138.5834    120.73577    877.45336    25166.282 
 1514000    474.51667    3.7021778    96.398854    64.119473   -158.18284    26794.431 
 1516000    450.51686    4.1918201    119.20021    83.083282   -346.64029    34991.848 
 1518000    537.55567    2.7441978    117.63304    128.25198   -757.68113    30500.525 
 1520000    521.48604     3.318162     99.90364    103.88228    31.391045    24711.469 
 1522000    456.09819    4.6808415    101.36525    29.236579   -975.21076    26088.326 
 1524000    514.05547    10.249009    101.60334     108.5529   -93.630429    31332.631 
 1526000    487.20667    3.9394534     90.74991    66.887514   -90.981372    38242.585 
 1528000    481.54069    4.1687271    117.10081    117.69457    625.98766    35598.481 
 1530000    528.73295    3.4930948    125.85676    161.91459   -255.40032    31686.527 
 1532000    555.49674    5.5435075    123.53748    179.38698    454.67239    40165.551 
 1534000    496.72014     6.399061    112.71709    146.49376    481.64397    41396.695 
 1536000    543.03384    2.1684012    108.96948    174.79362    -298.6881     45604.99 
 1538000    518.78497    3.9412731    98.990045    105.72148   -82.022184    41919.128 
 1540000    523.60012    2.4531661    105.49336    125.97359   -46.735489    46740.015 
 1542000    465.08194    5.4978692    102.97673    98.264712    424.79381    29304.374 
 1544000     500.0564    9.3334933    110.55727    132.70036   -208.42208    44375.738 
 1546000    448.18578    4.1953183    110.92172    115.51662   -424.74582    44999.599 
 1548000    519.51225     5.420458    118.43019    159.37431    225.14174    40764.627 
 1550000    490.99727    4.6815543    116.28044    118.49755    118.00359    31649.056 
 1552000    553.87838    3.1730118    121.26528    198.62696    727.73229    36980.282 
 1554000    495.70891     5.715031    126.96164    134.35218    503.47127    32183.299 
 1556000    518.73776     2.713023     124.4811    150.34162    952.72449    24837.257 
 1558000    496.80579    3.2795595     115.5238    137.86825   -369.92711    28782.654 
 1560000    485.10678    16.397032    116.30859    154.27138   -289.91445    29945.191 
 1562000    448.49939    4.3317803    111.49401    99.373071   -973.77062    32003.742 
 1564000    513.73225    2.9541771    106.45761    136.22235   -357.52411    28055.934 
 1566000    484.26321    2.5246715    120.69281    133.22673    114.65594     26648.45 
 1568000    494.14353    3.4508374    103.07537    137.06761    183.32804    27216.618 
 1570000    501.11339    2.2362963    110.87658     124.8047    273.60651     25812.68 
 1572000    462.75536    5.8577635    108.97925    108.60203   -471.60557    22704.645 
 1574000    450.49644    6.1164087    116.87796    122.82228   -118.07889    32553.325 
 1576000    497.21162    4.1365888    129.67701    164.86363    288.06447    35295.271 
 1578000    461.68827    5.3425991    97.789979    110.98109    27.618666    36762.484 
 1580000    512.61947    6.6193543     133.7865    184.54217     75.53296    32501.081 
 1582000    493.73326    7.8447608    111.35619    137.66937   -9.9903594    23101.536 
 1584000    609.67224    4.0876604    102.11786    221.00955   -531.93275    27536.088 
 1586000    583.71422    9.0664099    109.38434    195.54155    248.42787    25965.727 
 1588000    476.92254    5.7616388    132.26218    132.78417   -601.09933    29307.539 
 1590000    517.28682    2.7685782    114.04203    147.45754    231.20853    26538.557 
 1592000    536.41173    8.6993566    93.034842    167.96119     345.2981    34353.936 
 1594000     542.8983    3.8600622    122.09272    178.08963   -744.92742     34814.71 
 1596000    516.02089    3.7208787    124.50085    153.12711   -335.21574    31345.355 
 1598000    564.79991    3.9155404    116.71237    181.50671    344.51561    38302.651 
 1600000    493.42087     5.590272    145.63439    168.04144   -242.71701    37052.882 
 1602000    471.56819    4.1003084    97.571678    123.35733   -485.98972    37532.598 
 1604000    545.28702    3.0264861    107.24253    162.32706   -457.95351    43375.585 
 1606000    529.43814    5.8788552     130.1066    172.56865    166.94324    36948.912 
 1608000    521.11637    5.2217235    104.32712    130.63829   -275.71696     41032.33 
 1610000    533.95646    5.2163797    126.22594    163.63654   -470.06567    38466.173 
 1612000    552.67736    4.0772105    111.73943     177.6566   -292.04158    28838.208 
 1614000    503.75768    11.073307    121.79423    162.94353   -1053.3387    30493.102 
 1616000    504.03867    3.8101984    95.065108    114.34058    190.35016    34815.281 
 1618000    491.26796     7.841311    119.31312    135.59528    178.17282    35128.923 
 1620000    536.55262    4.7766567    125.94131    173.60681   -496.47983    30703.428 
 1622000    557.74959    4.6535747    120.10369     153.5154    1346.5572    29371.907 
 1624000    488.73232    6.2342787     105.4842    114.36239   -293.94971    28305.234 
 1626000    491.86597    7.1531142    116.63938    135.28607    2.7956431    25251.211 
 1628000    523.79215    8.5008619    112.27737    106.36631   -172.64437    27239.336 
 1630000    509.51576    4.5356592     111.7049    107.92871   -267.71781    24836.224 
 1632000    523.88972    1.4293937    107.79351    105.05267    485.60639    22841.834 
 1634000    519.36902    3.7241743    97.856483    118.10659    264.81952    26935.194 
 1636000    542.32759    13.689354    107.14755    156.66157    -728.7328     23826.39 
 1638000    547.73102    6.7160946    108.63546    127.94304   -418.80028    20060.996 
 1640000    488.08517    10.617769      120.722    140.35919    672.87498    23233.227 
 1642000     512.5535    7.4287872    121.26142    157.96367   -264.32182    25246.387 
 1644000    505.93875    8.4968416    124.14588    174.04628   -442.94457    30821.146 
 1646000    504.52893    7.8610061    120.61217    150.06017    570.39811    27977.423 
 1648000    509.11099    7.3935237    126.68668    167.70868   -933.44176     31277.91 
 1650000     537.7219    2.9819565    127.94653    174.12311    323.00429    30294.331 
 1652000    520.91404    9.4462106    123.12715    185.31345    164.31841    36558.622 
 1654000    487.22947    4.7573183    113.72086    123.35864    238.38519    34359.213 
 1656000     483.0685    7.0991099    132.99558    135.51936   -487.25663    32411.652 
 1658000    467.06018    7.3612796     125.2421    127.77614    172.05757    32726.949 
 1660000     529.4374    4.5198103    132.20222    189.70845   -227.33104    35861.106 
 1662000    520.12649     3.948316    99.290525    118.27744    663.09406    27215.669 
 1664000    517.05528     3.883233    113.09093    138.46466    -178.2669    27202.041 
 1666000    525.01759    6.6895135    114.29663    135.37437    139.56296     29875.36 
 1668000    488.53329    5.9003096    104.29372    128.26103    292.18641    26942.634 
 1670000    579.93432    8.5205646    118.38165    189.42258    13.027979     25477.35 
 1672000    549.58792    3.8131006    120.45876    175.71102   -59.575274    24089.228 
 1674000    515.19338     11.44671     122.1154    141.22955    1210.2045     26276.08 
 1676000    502.38526    6.6860592    123.58962    130.91811   -384.84094    32916.769 
 1678000    540.94376    6.4666867    132.41712    182.22097   -389.19809    32547.777 
 1680000    541.30404    3.2093749    97.481569    137.62066    245.06407    33346.826 
 1682000    494.97123    3.8343193    109.71064    118.35692   -192.86731    28871.156 
 1684000    497.18094    3.1618128    118.12123     110.4203    768.69689    31271.437 
 1686000    514.43935    6.2851186    98.527782    93.605644    233.67786    32552.548 
 1688000    520.42817    4.6235979    119.75768    119.45177    103.51783    30592.635 
 1690000    508.87975    6.7913884    146.01476    154.87766   -136.63411      26640.1 
 1692000    544.14388    8.8254494    105.23592    133.72993    121.45575    29081.206 
 1694000     495.9528    3.5367378    111.54051    122.93933    414.29073    28727.513 
 1696000    510.31821    9.5342829    141.22226    168.52121    213.43192    36613.223 
 1698000    510.32628    2.5119018     127.0247    157.16823    549.38492    30228.977 
 1700000    510.65476    3.8447232    132.48381    140.13094    680.20581    27718.218 
 1702000    574.04306    6.6365653    112.00234    175.63321    479.81726    23693.071 
 1704000    555.42725    6.8089112    117.14714     150.9162    379.54273    27540.371 
 1706000    526.81329    8.6494932     125.8665    133.68639   -311.07417    33532.104 
 1708000    525.04412    11.767504    108.61691    130.72687   -208.83517    36146.976 
 1710000    533.42201    5.1612054    117.94438    169.05004    238.88056     53092.11 
 1712000    586.69139     3.611453    118.25176    161.37217   -26.523916    51758.822 
 1714000    545.74942    6.7949547    120.67637    143.51617    38.611671    38917.715 
 1716000    536.59413    5.4709376    116.78068    115.36218   -247.84195    43605.409 
 1718000    575.62882    3.8160284    112.96329    181.21245   -507.85016     48865.89 
 1720000    519.26004     4.831792    130.69782    146.00139   -479.73157    40597.164 
 1722000    562.81297     6.543532    125.93282     182.7536    407.11009     38153.83 
 1724000    519.23998    2.5219632    115.94806    146.05736   -18.477355    40240.065 
 1726000     538.2334     2.519729    115.85173    184.37845     16.72908    43689.486 
 1728000    478.74434    2.7831808    108.16727    121.57959   -694.06672    31452.035 
 1730000    548.45895    2.8737203    131.82357    154.82113   -14.172182    38482.775 
 1732000    498.50019    5.2219543    140.75615    161.19825    740.58187    33967.799 
 1734000     524.7553    5.3353659    119.42267    158.06697    118.49595    37210.707 
 1736000    498.73048    6.9368443    104.68939    107.00592    802.33659    32474.555 
 1738000    571.59552    7.7090746    102.38775    210.06236    87.194606    33741.347 
 1740000    526.30635    7.6961129    131.76974    194.61932   -772.54373    30487.973 
 1742000    491.18929    2.0883567    118.83205    178.82725    101.65193    35629.559 
 1744000    514.70483    2.3979007    100.67047    101.86483    80.178623     29751.24 
 1746000    543.99603    6.6783285    104.22663    146.79661    460.61928    33011.242 
 1748000     518.6947    4.5173126     117.1756    154.13297    -154.3117    30752.375 
 1750000    551.48803     5.661022    108.31521     162.8019     778.3665    28528.087 
 1752000    493.51332    2.3306992    131.70084    154.19053     342.1289    29713.338 
 1754000    538.88911    6.4756611    110.49024    177.79786    504.22214    28458.967 
 1756000    531.42204    14.584759    128.27251    175.57488   -92.770241    37530.077 
 1758000    512.38459    6.1787171    113.20817    180.73474    269.74432    35228.705 
 1760000    510.21543    7.6468442    126.62735    164.27705    337.41299    25748.372 
 1762000    518.84424    7.2435071    139.78463    185.43803   -419.80352    25593.948 
 1764000    519.59146    2.8823438    108.52591    135.98799   -51.603596    24334.465 
 1766000    522.68178    6.4622493     137.0619    228.95385    69.517653    31218.335 
 1768000    547.89149    3.8053672    141.85014    200.40886    136.24676    28381.918 
 1770000    598.36416    4.1174929    111.22423    219.97871   -326.76083    35255.881 
 1772000    631.65929     4.600863    105.33808    215.99235    142.38031    31105.845 
 1774000    553.27548    3.8977893    122.45281    159.84123    121.59361    26377.967 
 1776000     552.9235    1.8683629    118.30143    200.62295    8.2561019    33482.553 
 1778000    505.82897     3.495978    115.45406    144.26804   -385.58839    33681.241 
 1780000    542.84427    5.4917965    125.21279    170.70087    222.66408    38574.857 
 1782000    594.12651    6.2122918    104.84534    182.56144   -49.013142     37115.31 
 1784000    577.73652    3.2706781     124.5192     195.6341    223.74066    37747.406 
 1786000    513.23175    3.7255644    119.03327    138.78056    428.15349     34553.01 
 1788000     527.8232    4.1803854     116.7933    170.25346   -33.834542    32471.461 
 1790000    510.76359    4.0192902    124.59492    130.92663   -67.656687    29970.965 
 1792000    589.74128    7.4315024    101.67246    170.53627    26.813667     40705.65 
 1794000    527.76914     5.901804    108.83844    129.53681   -36.244098    39738.828 
 1796000    512.17817    4.2183854    146.80713    161.22929    248.77313    32081.867 
 1798000    485.72798    2.2678248    138.02848    150.64504    156.69268    42826.123 
 1800000    531.77568     5.034551    132.27158    176.01176    674.06972    39499.829 
 1802000    495.05949    2.6422062    144.38929     190.3937    20.834591    30241.264 
 1804000    563.45554    3.6971162    107.31711    164.57325   -4.9959205    32096.925 
 1806000    507.62326    3.7732406    125.35743    134.33105    270.64564    34371.974 
 1808000    491.81981    3.5496797    125.68984    185.05737   -798.40103    30914.371 
 1810000    544.28731     8.450089    107.19923    149.38103    -331.7286    33080.384 
 1812000    449.67757    7.8581442     141.8639    121.41678   -557.01108    33435.455 
 1814000    569.15106      5.19014    117.44105    171.87927    667.75754     27257.92 
 1816000    579.23477    3.3809319    106.89629    146.82407   -139.57553    24863.488 
 1818000    552.37387    4.7747172    130.43586     178.5567   -1671.7043    25495.924 
 1820000     536.6487    7.1330116    112.54144    119.85071   -100.93857    23158.373 
 1822000    540.76016    8.9680517    116.20499    185.15941   -75.753785    24850.338 
 1824000     501.3607    3.5154098    134.70671    158.93272    57.857704    29212.852 
 1826000    483.92095    5.9119687    135.91286    163.60153   -660.40303    30661.561 
 1828000    492.41822    11.233536    123.99618    152.66074    383.50477    25136.323 
 1830000    504.56752    3.2672772    115.61042    154.11502   -502.94649    31070.321 
 1832000    558.81403    6.2366178    121.47061    195.69158    10.151797     33905.92 
 1834000    565.69866    3.2508995    138.24531    211.51185   -182.39871    31071.634 
 1836000    527.85626    8.5585263    123.68349    151.61816    488.02622    29090.194 
 1838000    507.40883    10.155733    120.59018    157.63832     396.8138    35635.734 
 1840000    523.68349    1.4772153    139.83175    177.37564   -588.11009    32171.897 
 1842000    584.59661     2.451128    123.97551    193.75418     20.10946    34795.892 
 1844000    559.19274     4.766107    128.94326    167.91997   -504.43074    30260.356 
 1846000    546.32152    2.4156286    135.50205    195.83808    -151.3707    28220.941 
 1848000    540.44617    3.0988406    141.20376     161.1591   -456.37022      33668.6 
 1850000    521.31489     3.723404    113.41561    141.09235   -231.16675    31122.225 
 1852000    561.62233    8.0850025    121.21685    200.38963    58.072635    43676.581 
 1854000    572.95487    4.6588439    110.01738    157.79781    622.23724     35820.08 
 1856000    578.60127    5.1085898    114.97868    151.78802    -576.9784    31427.617 
 1858000    557.60996    3.4514559    114.96894    174.95488    560.88943    31714.167 
 1860000    573.25375    3.8648268     114.0245    212.90687    770.06235    32569.033 
 1862000    539.39965    3.2311861    122.24541    170.56115    444.22054     39844.78 
 1864000    547.19878    6.6674997    123.04026    236.24422   -354.81548    36227.691 
 1866000    536.15691    10.072676    109.94047    173.18153    521.12017    39952.342 
 1868000    521.90774    4.6470807    121.15958    188.85734   -52.317046     57094.65 
 1870000    541.44611    4.2259665    130.43232    194.53719    1.6816997    52259.586 
 1872000    581.20333     1.676956    119.00962    210.72418   -144.26983    57577.241 
 1874000     534.8315    1.2327748    136.89384    244.16541   -510.31422    64674.056 
 1876000    525.19406    6.1613527    126.71523    182.68953    299.34251    64295.273 
 1878000     490.8784    4.6268673    129.35473    193.98069   -344.45301    52743.142 
 1880000    539.28556    2.0763731     130.2899    201.14545    73.560464    38900.388 
 1882000    560.41385    6.9401817    119.47751     216.5238   -650.06443    41026.754 
 1884000    566.29485    5.9492563    125.48197    197.45532    152.61518    40755.197 
 1886000    591.67268    12.214461    126.85845    217.36284    345.28289    48511.034 
 1888000      542.314    2.1656408    129.52651    222.08884   -264.44458    51671.457 
 1890000    512.30666    3.9859707    129.28643    160.50104   -412.51059    55775.497 
 1892000    557.79897    11.364626    119.76889    193.57494   -215.11131    48579.332 
 1894000    532.54108    6.9034164     121.1416    147.32155     15.10356    48026.973 
 1896000    572.99574    6.5589828    98.719472    172.37218   -435.49879    48911.251 
 1898000    536.42061    8.2048174    126.68957     172.5521    168.97325    47708.714 
 1900000    534.21701    2.0290067    127.52077    191.78308    21.670482    53244.431 
 1902000    496.15439    4.2316262    137.11431     215.9222    -25.98267    64470.965 
 1904000    561.41549    2.6031469    134.19479    252.65887     -206.558     54642.14 
 1906000    534.99619     5.940218    109.47667    201.18338   -350.92151    53637.172 
 1908000     608.0545    7.2014257     119.9088    238.53515   -104.32346    59315.774 
 1910000    582.97482    3.0061003    121.49397    205.50129    301.50368    55523.282 
 1912000    540.07999    3.8399627    146.02663    221.70926    -136.4586    54787.275 
 1914000    550.78804    4.5916858    126.13334    176.97268   -279.02138    51640.159 
 1916000    561.78417    4.0437472    133.73833     190.5079    -430.2267    50114.365 
 1918000    504.00726    13.850609    135.68375    194.68543    19.446376    42109.611 
 1920000     567.3476    8.2633047    118.87578    184.12592   -182.60604    44035.091 
 1922000    580.09415    9.9730458    110.90309     228.5441   -295.49922    36873.875 
 1924000    523.73108    3.4100274    112.47462    179.39907    474.90798    32623.348 
 1926000    570.00485    6.6758565    127.42162    237.29187    -158.7678    51178.888 
 1928000    519.75846    1.7043816    117.53455    185.77771    -540.1285    36041.122 
 1930000    558.30092    9.0898456     119.0254    233.86833    455.36059    38054.332 
 1932000    534.66592     6.289588    140.04353    261.24742    109.44794    33620.087 
 1934000    504.92601    3.6075919    131.63497    182.85363    477.86498    32962.513 
 1936000    539.05443    6.4776798    125.90656    207.24227   -520.60572    31192.572 
 1938000     540.3997     5.671165    123.31149     237.7766   -151.63303    39111.289 
 1940000    513.40048    7.7966322    130.55302    235.40166   -204.37334    35834.875 
 1942000    546.12899    4.6044908     115.7438    187.97602   -627.66296    28830.669 
 1944000      561.745    4.9457686    109.36593    201.87386    939.11638     27063.11 
 1946000    565.27273    9.6796263    121.00236    247.46545    419.66992    31003.295 
 1948000    572.15346    3.0461159    148.20534    227.28057    501.15902    26709.309 
 1950000    492.92825    1.5351806    120.67911    137.31108   -586.01857    32536.695 
 1952000    524.64753    8.7527301      111.067    175.16036    599.46376    41829.626 
 1954000    544.48257    2.4266799    138.27189    218.23992   -205.18544      39829.4 
 1956000    547.78939    7.0364858     116.2764    184.03944   -418.08117    46841.066 
 1958000    568.81239    8.6684385    110.39512    173.06598    464.49242    43570.317 
 1960000    506.13338    7.1866695    117.45941    160.11219   -465.34644    49180.657 
 1962000    567.98417    6.0205808    117.80064    158.87758    791.27041    35582.041 
 1964000    519.69543    6.6371154    138.72864    186.09913    11.340901    30094.603 
 1966000    563.17137    5.4741804    133.93257    227.65537     661.5355    34978.999 
 1968000    528.76217    1.3885515    142.32248    210.28985   -466.73215    33307.558 
 1970000    539.30706    4.0321051    115.48924    148.31437   -124.26796    35272.519 
 1972000    565.16952    8.8752083    133.94246    184.54723    344.96522    35643.124 
 1974000    565.14267    3.0172203    106.62289    176.56469    476.20309    33925.703 
 1976000    523.28899    7.7916815    132.63724    204.24489   -390.57101     34890.23 
 1978000    599.50086    5.1101624    127.77896    261.23237   -342.17934    39535.695 
 1980000     546.4464    5.6598973    125.52437    276.21804   -282.42227    32781.104 
 1982000    525.23313    4.5184568     115.2432    179.57847    538.76953    30216.112 
 1984000    609.20521    7.1509702    125.79668    223.09185   -75.673521    24802.346 
 1986000    482.78994    6.8709467    134.14978    180.78146   -391.85364    35603.531 
 1988000    540.50156    3.8314312     112.0233     156.5103   -59.430874    42174.225 
 1990000    569.42306    6.3496309     117.9848    223.12528    108.75431    41564.564 
 1992000    515.98238    5.4517973    144.99835    225.07082   -365.15677    41378.853 
 1994000    559.45164    3.1619271    133.51415    229.26295    -2.703024    50471.835 
 1996000    582.56837    1.6460159    114.51458    211.11715    -286.4752    52705.499 
 1998000    551.92851      4.74526    132.24195    189.72381    131.53682    41561.341 
 2000000     583.5832    5.7773819    113.34751    251.93781    194.90282    33687.819 
Loop time of 3824.48 on 1 procs for 2000000 steps with 189 atoms

Pair  time (%) = 90.3808 (2.36322)
Bond  time (%) = 13.8095 (0.361081)
Neigh time (%) = 21.7554 (0.568845)
Comm  time (%) = 0.623685 (0.0163077)
Outpt time (%) = 0.245989 (0.00643195)
Other time (%) = 3697.67 (96.6841)

Nlocal:    189 ave 189 max 189 min
Histogram: 1 0 0 0 0 0 0 0 0 0
Nghost:    0 ave 0 max 0 min
Histogram: 1 0 0 0 0 0 0 0 0 0
Neighs:    2197 ave 2197 max 2197 min
Histogram: 1 0 0 0 0 0 0 0 0 0
FullNghs:  4394 ave 4394 max 4394 min
Histogram: 1 0 0 0 0 0 0 0 0 0

Total # of neighbors = 4394
Ave neighs/atom = 23.2487
Ave special neighs/atom = 2.6455
Neighbor list builds = 48212
Dangerous builds = 1
[Chain]
60.0 60.0 60.0 
2.459108 2.519591 2.466597

[Chi]
60.0 -0.71

[Epsilon]
1.0

[Rama]
2.0
5
 1.3149  15.398 0.15   1.74 0.65 -2.138
1.32016 49.0521 0.25  1.265 0.45  0.318
 1.0264 49.0954 0.65 -1.3 0.25  -0.5
    2.0   99.0  1.0  1.1  1.0  0.820
    2.0  15.398  1.0   2.25  1.0  -2.16

[Rama_P]
3
 0.0    0.0 1.0   0.0  1.0   0.0
2.17 105.52 1.0 1.153 0.15  -2.4
2.15 109.09 1.0  0.95 0.15 0.218
 0.0    0.0 1.0   0.0  2.0   0.0
 0.0    0.0 1.0   0.0  2.0   0.0

[SSWeight]
0 0 0 1 1 0
0 0 0 0 0 0

[ABC]
0.4831806 0.703282 -0.1864262
0.4436538 0.2352006 0.3211455
0.841 0.89296 -0.73389

[Dssp_Hdrgn]
0.5
0.0  0.0
1.37  0.0  3.49 1.30 1.32 1.22   0.0
1.36  0.0  3.50 1.30 1.32 1.22   3.47  0.33 1.01
1.17  0.0  3.52 1.30 1.32 1.22   3.62  0.33 1.01
0.76   0.68
2.06   2.98
7.0
1.0    0.5
12.0

[P_AP]
0.5
1.5
1.0 0.4 0.4
8.0
7.0
5 8
4

[Water]
0.75
5.0 7.0
2.6
10
2
4.5 6.5 1
6.5 9.5 1

[Burial]
1.0
4.0
0.0 3.0
3.0 6.0
6.0 9.0

[Helix]
0.5
2.0 -1.0
7.0 7.0
3.0
4
15.0
4.5 6.5
0.77 0.68 0.07 0.15 0.23 0.33 0.27 0.0 0.06 0.23 0.62 0.65 0.50 0.41 -3.0 0.35 0.11 0.45 0.17 0.14
0 -3.0
0.76 0.68
2.1558 2.9862

[Fragment_Memory_Table]
0.2
fragsLAMW.mem.single
seq.gamma
0 50 0.01
0.1
0
0.15
